Version identifier: 22.1.0.0 | 2022-03-09 | 1a383f8ce
CPXPARAM_Threads                                 1
CPXPARAM_MIP_Strategy_VariableSelect             3
CPXPARAM_TimeLimit                               600
Tried aggregator 1 time.
MIP Presolve eliminated 409 rows and 796 columns.
MIP Presolve modified 1 coefficients.
Reduced MIP has 996 rows, 1593 columns, and 12436 nonzeros.
Reduced MIP has 1592 binaries, 0 generals, 0 SOSs, and 0 indicators.
Presolve time = 0.02 sec. (8.08 ticks)
Found incumbent of value 7.000000 after 0.04 sec. (20.28 ticks)
Probing time = 0.00 sec. (4.10 ticks)
Tried aggregator 1 time.
Detecting symmetries...
Reduced MIP has 996 rows, 1593 columns, and 12436 nonzeros.
Reduced MIP has 1592 binaries, 0 generals, 0 SOSs, and 0 indicators.
Presolve time = 0.01 sec. (6.44 ticks)
Probing time = 0.00 sec. (4.10 ticks)
Clique table members: 201.
MIP emphasis: balance optimality and feasibility.
MIP search method: dynamic search.
Parallel mode: none, using 1 thread.
Root relaxation solution time = 0.01 sec. (11.45 ticks)

        Nodes                                         Cuts/
   Node  Left     Objective  IInf  Best Integer    Best Bound    ItCnt     Gap

*     0+    0                            7.0000        0.0000           100.00%
      0     0        0.0000    70        7.0000        0.0000      551  100.00%
*     0+    0                            1.0000        0.0000           100.00%
*     0+    0                            0.0000        0.0000             0.00%
      0     0        cutoff              0.0000        0.0000      551    0.00%
Elapsed time = 0.10 sec. (73.93 ticks, tree = 0.01 MB, solutions = 3)

Root node processing (before b&c):
  Real time             =    0.10 sec. (74.03 ticks)
Sequential b&c:
  Real time             =    0.00 sec. (0.00 ticks)
                          ------------
Total (root+branch&cut) =    0.10 sec. (74.03 ticks)
Primal:	0
Dual:	0
Status:	Optimal
Time:	0.11
Sequence:
	9
	5
	4
	1
	4
	5
	9
	5
	9
	5
	4
	1
	4
	1
	4
	5
	9
	5
	4
	10
	9
	9
	1
	9
	9
	9
	1
	9
	5
	9
	1
	9
	9
	9
	5
	9
	1
	4
	5
	0
	1
	9
	10
	9
	10
	0
	5
	4
	10
	4
	1
	9
	4
	5
	0
	5
	9
	1
	4
	4
	1
	0
	5
	4
	1
	0
	1
	4
	5
	9
	1
	0
	1
	9
	5
	4
	0
	3
	4
	1
	0
	5
	9
	5
	9
	10
	0
	4
	5
	0
	5
	4
	10
	0
	10
	4
	1
	9
	5
	0
	5
	9
	10
	0
	1
	9
	0
	9
	5
	0
	1
	4
	10
	9
	5
	8
	1
	4
	10
	9
	1
	0
	5
	9
	10
	9
	5
	9
	1
	4
	0
	5
	9
	5
	9
	10
	4
	5
	9
	10
	9
	5
	0
	1
	4
	5
	9
	0
	10
	9
	1
	9
	5
	0
	1
	9
	5
	4
	1
	0
	4
	5
	9
	5
	0
	5
	9
	1
	4
	5
	9
	1
	9
	1
	4
	5
	0
	1
	9
	5
	0
	5
	9
	1
	4
	5
	0
	10
	4
	5
	0
	1
	9
	5
	0
	4
	10
	4
	5
